(set-logic HORN)

(declare-fun __VERIFIER_assert (Int) Bool)
(declare-fun $main_inv120 ((Array Int Int) (Array Int Int) (Array Int Int) (Array Int Int) (Array Int Int) Int Int Int) Bool)
(declare-fun $main_sum119 ((Array Int Int) (Array Int Int) (Array Int Int) (Array Int Int) (Array Int Int) Int Int Int (Array Int Int) (Array Int Int) (Array Int Int) (Array Int Int) (Array Int Int) Int Int Int) Bool)
(declare-fun $main_inv121 ((Array Int Int) (Array Int Int) (Array Int Int) (Array Int Int) (Array Int Int) Int Int Int) Bool)
(declare-fun $__VERIFIER_assert_ERROR (Int Int) Bool)
(declare-fun $main_inv123 ((Array Int Int) (Array Int Int) (Array Int Int) (Array Int Int) (Array Int Int) Int Int Int) Bool)
(declare-fun $main_sum121 ((Array Int Int) (Array Int Int) (Array Int Int) (Array Int Int) (Array Int Int) Int Int Int (Array Int Int) (Array Int Int) (Array Int Int) (Array Int Int) (Array Int Int) Int Int Int) Bool)
(declare-fun $main_sum124 ((Array Int Int) (Array Int Int) (Array Int Int) (Array Int Int) (Array Int Int) Int Int Int (Array Int Int) (Array Int Int) (Array Int Int) (Array Int Int) (Array Int Int) Int Int Int) Bool)
(declare-fun $main_inv122 ((Array Int Int) (Array Int Int) (Array Int Int) (Array Int Int) (Array Int Int) Int Int Int) Bool)
(declare-fun $main_inv124 ((Array Int Int) (Array Int Int) (Array Int Int) (Array Int Int) (Array Int Int) Int Int Int) Bool)
(declare-fun $main_inv119 ((Array Int Int) (Array Int Int) (Array Int Int) (Array Int Int) (Array Int Int) Int Int Int) Bool)
(declare-fun $__VERIFIER_assert_if50 (Int Int) Bool)
(declare-fun $__VERIFIER_assert_pre (Int) Bool)
(declare-fun $main_sum122 ((Array Int Int) (Array Int Int) (Array Int Int) (Array Int Int) (Array Int Int) Int Int Int (Array Int Int) (Array Int Int) (Array Int Int) (Array Int Int) (Array Int Int) Int Int Int) Bool)
(declare-fun $main_sum120 ((Array Int Int) (Array Int Int) (Array Int Int) (Array Int Int) (Array Int Int) Int Int Int (Array Int Int) (Array Int Int) (Array Int Int) (Array Int Int) (Array Int Int) Int Int Int) Bool)
(declare-fun $main_sum123 ((Array Int Int) (Array Int Int) (Array Int Int) (Array Int Int) (Array Int Int) Int Int Int (Array Int Int) (Array Int Int) (Array Int Int) (Array Int Int) (Array Int Int) Int Int Int) Bool)

; label ERROR
(assert
  (forall ((cond Int))
    (=> (and (= cond 0)
             ($__VERIFIER_assert_pre cond))
        ($__VERIFIER_assert_ERROR cond cond))))

; error
(assert
  (forall ((cond Int) (cond2547 Int))
    (=> (and ($__VERIFIER_assert_ERROR cond cond2547))
        false)))

; if else
(assert
  (forall ((cond Int))
    (=> (and (not (= cond 0))
             ($__VERIFIER_assert_pre cond))
        ($__VERIFIER_assert_if50 cond cond))))

; post __VERIFIER_assert
(assert
  (forall ((cond2548 Int) (cond Int))
    (=> (and ($__VERIFIER_assert_if50 cond cond2548))
        (__VERIFIER_assert cond2548))))

; loop entry $main_inv119
(assert
  (forall (($a3200 (Array Int Int)) ($x205 Int) ($a2199 (Array Int Int)) ($a1198 (Array Int Int)) ($i204 Int) ($a5202 (Array Int Int)) ($a4201 (Array Int Int)))
        ($main_inv119 $a1198 $a2199 $a3200 $a4201 $a5202 0 $i204 $x205)))

; loop term $main_sum119
(assert
  (forall (($a21992550 (Array Int Int)) ($a11982549 (Array Int Int)) ($i2042555 Int) ($a42012552 (Array Int Int)) ($a32002551 (Array Int Int)) ($x2052556 Int) ($a52022553 (Array Int Int)) ($a2032554 Int))
    (=> (and (not (< $a2032554 100000)))
        ($main_sum119 $a11982549 $a21992550 $a32002551 $a42012552 $a52022553 $a2032554 $i2042555 $x2052556 $a11982549 $a21992550 $a32002551 $a42012552 $a52022553 $a2032554 $i2042555 $x2052556))))

; forwards $main_inv119
(assert
  (forall (($a21992550 (Array Int Int)) ($a11982549 (Array Int Int)) ($int2557 Int) ($i2042555 Int) ($a42012552 (Array Int Int)) ($x2052556 Int) ($a52022553 (Array Int Int)) ($a2032554 Int) ($a32002551 (Array Int Int)) ($int2558 Int))
    (=> (and (<= (- 2147483648) $int2558)
             (<= $int2558 2147483647)
             (<= (- 2147483648) $int2557)
             (<= $int2557 2147483647)
             (< $a2032554 100000)
             ($main_inv119 $a11982549 $a21992550 $a32002551 $a42012552 $a52022553 $a2032554 $i2042555 $x2052556))
        ($main_inv119 (store $a11982549 $a2032554 $int2557) $a21992550 $a32002551 (store $a42012552 $a2032554 $int2558) $a52022553 (+ $a2032554 1) $i2042555 $x2052556))))

; backwards $main_sum119
(assert
  (forall (($a52022563 (Array Int Int)) ($a42012562 (Array Int Int)) ($a21992550 (Array Int Int)) ($i2042555 Int) ($i2042565 Int) ($a11982559 (Array Int Int)) ($x2052556 Int) ($a52022553 (Array Int Int)) ($a2032554 Int) ($a21992560 (Array Int Int)) ($a32002561 (Array Int Int)) ($a11982549 (Array Int Int)) ($int2557 Int) ($x2052566 Int) ($a2032564 Int) ($a42012552 (Array Int Int)) ($a32002551 (Array Int Int)) ($int2558 Int))
    (=> (and ($main_sum119 (store $a11982549 $a2032554 $int2557) $a21992550 $a32002551 (store $a42012552 $a2032554 $int2558) $a52022553 (+ $a2032554 1) $i2042555 $x2052556 $a11982559 $a21992560 $a32002561 $a42012562 $a52022563 $a2032564 $i2042565 $x2052566)
             (<= (- 2147483648) $int2558)
             (<= $int2558 2147483647)
             (<= (- 2147483648) $int2557)
             (<= $int2557 2147483647)
             (< $a2032554 100000))
        ($main_sum119 $a11982549 $a21992550 $a32002551 $a42012552 $a52022553 $a2032554 $i2042555 $x2052556 $a11982559 $a21992560 $a32002561 $a42012562 $a52022563 $a2032564 $i2042565 $x2052566))))

; loop entry $main_inv120
(assert
  (forall (($a2032572 Int) ($x205 Int) ($a2199 (Array Int Int)) ($a1198 (Array Int Int)) ($i204 Int) ($a42012570 (Array Int Int)) ($x2052574 Int) ($a11982567 (Array Int Int)) ($a3200 (Array Int Int)) ($a5202 (Array Int Int)) ($a4201 (Array Int Int)) ($a52022571 (Array Int Int)) ($i2042573 Int) ($a21992568 (Array Int Int)) ($a32002569 (Array Int Int)))
    (=> (and ($main_sum119 $a1198 $a2199 $a3200 $a4201 $a5202 0 $i204 $x205 $a11982567 $a21992568 $a32002569 $a42012570 $a52022571 $a2032572 $i2042573 $x2052574))
        ($main_inv120 $a11982567 $a21992568 $a32002569 $a42012570 $a52022571 $a2032572 0 $x2052574))))

; loop term $main_sum120
(assert
  (forall (($x2052582 Int) ($a21992576 (Array Int Int)) ($a32002577 (Array Int Int)) ($a52022579 (Array Int Int)) ($a2032580 Int) ($a42012578 (Array Int Int)) ($i2042581 Int) ($a11982575 (Array Int Int)))
    (=> (and (not (< $i2042581 100000)))
        ($main_sum120 $a11982575 $a21992576 $a32002577 $a42012578 $a52022579 $a2032580 $i2042581 $x2052582 $a11982575 $a21992576 $a32002577 $a42012578 $a52022579 $a2032580 $i2042581 $x2052582))))

; forwards $main_inv120
(assert
  (forall (($x2052582 Int) ($a21992576 (Array Int Int)) ($a32002577 (Array Int Int)) ($a52022579 (Array Int Int)) ($a2032580 Int) ($a42012578 (Array Int Int)) ($i2042581 Int) ($a11982575 (Array Int Int)))
    (=> (and (< $i2042581 100000)
             ($main_inv120 $a11982575 $a21992576 $a32002577 $a42012578 $a52022579 $a2032580 $i2042581 $x2052582))
        ($main_inv120 $a11982575 (store $a21992576 $i2042581 (select $a11982575 $i2042581)) $a32002577 $a42012578 $a52022579 $a2032580 (+ $i2042581 1) $x2052582))))

; backwards $main_sum120
(assert
  (forall (($a2032588 Int) ($a52022587 (Array Int Int)) ($a11982583 (Array Int Int)) ($i2042589 Int) ($a32002577 (Array Int Int)) ($a52022579 (Array Int Int)) ($a42012586 (Array Int Int)) ($x2052582 Int) ($a21992584 (Array Int Int)) ($x2052590 Int) ($a2032580 Int) ($a42012578 (Array Int Int)) ($a21992576 (Array Int Int)) ($a32002585 (Array Int Int)) ($i2042581 Int) ($a11982575 (Array Int Int)))
    (=> (and ($main_sum120 $a11982575 (store $a21992576 $i2042581 (select $a11982575 $i2042581)) $a32002577 $a42012578 $a52022579 $a2032580 (+ $i2042581 1) $x2052582 $a11982583 $a21992584 $a32002585 $a42012586 $a52022587 $a2032588 $i2042589 $x2052590)
             (< $i2042581 100000))
        ($main_sum120 $a11982575 $a21992576 $a32002577 $a42012578 $a52022579 $a2032580 $i2042581 $x2052582 $a11982583 $a21992584 $a32002585 $a42012586 $a52022587 $a2032588 $i2042589 $x2052590))))

; loop entry $main_inv121
(assert
  (forall (($a32002593 (Array Int Int)) ($a2032572 Int) ($x205 Int) ($a2199 (Array Int Int)) ($a1198 (Array Int Int)) ($a11982591 (Array Int Int)) ($a2032596 Int) ($i204 Int) ($x2052598 Int) ($a42012594 (Array Int Int)) ($a42012570 (Array Int Int)) ($a52022595 (Array Int Int)) ($x2052574 Int) ($a11982567 (Array Int Int)) ($a3200 (Array Int Int)) ($a5202 (Array Int Int)) ($a4201 (Array Int Int)) ($i2042597 Int) ($a52022571 (Array Int Int)) ($a21992592 (Array Int Int)) ($i2042573 Int) ($a21992568 (Array Int Int)) ($a32002569 (Array Int Int)))
    (=> (and ($main_sum120 $a11982567 $a21992568 $a32002569 $a42012570 $a52022571 $a2032572 0 $x2052574 $a11982591 $a21992592 $a32002593 $a42012594 $a52022595 $a2032596 $i2042597 $x2052598)
             ($main_sum119 $a1198 $a2199 $a3200 $a4201 $a5202 0 $i204 $x205 $a11982567 $a21992568 $a32002569 $a42012570 $a52022571 $a2032572 $i2042573 $x2052574))
        ($main_inv121 $a11982591 $a21992592 $a32002593 $a42012594 $a52022595 $a2032596 0 $x2052598))))

; loop term $main_sum121
(assert
  (forall (($a2032604 Int) ($a11982599 (Array Int Int)) ($a32002601 (Array Int Int)) ($a21992600 (Array Int Int)) ($i2042605 Int) ($x2052606 Int) ($a42012602 (Array Int Int)) ($a52022603 (Array Int Int)))
    (=> (and (not (< $i2042605 100000)))
        ($main_sum121 $a11982599 $a21992600 $a32002601 $a42012602 $a52022603 $a2032604 $i2042605 $x2052606 $a11982599 $a21992600 $a32002601 $a42012602 $a52022603 $a2032604 $i2042605 $x2052606))))

; forwards $main_inv121
(assert
  (forall (($a2032604 Int) ($a11982599 (Array Int Int)) ($a32002601 (Array Int Int)) ($a21992600 (Array Int Int)) ($i2042605 Int) ($x2052606 Int) ($a42012602 (Array Int Int)) ($a52022603 (Array Int Int)))
    (=> (and (< $i2042605 100000)
             ($main_inv121 $a11982599 $a21992600 $a32002601 $a42012602 $a52022603 $a2032604 $i2042605 $x2052606))
        ($main_inv121 $a11982599 $a21992600 (store $a32002601 $i2042605 (select $a21992600 $i2042605)) $a42012602 $a52022603 $a2032604 (+ $i2042605 1) $x2052606))))

; backwards $main_sum121
(assert
  (forall (($a2032612 Int) ($a11982599 (Array Int Int)) ($a52022611 (Array Int Int)) ($a32002601 (Array Int Int)) ($a11982607 (Array Int Int)) ($a21992600 (Array Int Int)) ($a21992608 (Array Int Int)) ($a42012610 (Array Int Int)) ($i2042605 Int) ($a2032604 Int) ($i2042613 Int) ($a42012602 (Array Int Int)) ($a52022603 (Array Int Int)) ($a32002609 (Array Int Int)) ($x2052606 Int) ($x2052614 Int))
    (=> (and ($main_sum121 $a11982599 $a21992600 (store $a32002601 $i2042605 (select $a21992600 $i2042605)) $a42012602 $a52022603 $a2032604 (+ $i2042605 1) $x2052606 $a11982607 $a21992608 $a32002609 $a42012610 $a52022611 $a2032612 $i2042613 $x2052614)
             (< $i2042605 100000))
        ($main_sum121 $a11982599 $a21992600 $a32002601 $a42012602 $a52022603 $a2032604 $i2042605 $x2052606 $a11982607 $a21992608 $a32002609 $a42012610 $a52022611 $a2032612 $i2042613 $x2052614))))

; loop entry $main_inv122
(assert
  (forall (($a32002593 (Array Int Int)) ($a2032572 Int) ($a1198 (Array Int Int)) ($a11982591 (Array Int Int)) ($a2032596 Int) ($a2032620 Int) ($a42012594 (Array Int Int)) ($a11982615 (Array Int Int)) ($a42012570 (Array Int Int)) ($x2052574 Int) ($a11982567 (Array Int Int)) ($a3200 (Array Int Int)) ($a52022619 (Array Int Int)) ($x205 Int) ($a5202 (Array Int Int)) ($a4201 (Array Int Int)) ($i2042597 Int) ($a2199 (Array Int Int)) ($a42012618 (Array Int Int)) ($a52022571 (Array Int Int)) ($a21992592 (Array Int Int)) ($i2042573 Int) ($a21992568 (Array Int Int)) ($a32002569 (Array Int Int)) ($i2042621 Int) ($x2052622 Int) ($i204 Int) ($a21992616 (Array Int Int)) ($x2052598 Int) ($a52022595 (Array Int Int)) ($a32002617 (Array Int Int)))
    (=> (and ($main_sum121 $a11982591 $a21992592 $a32002593 $a42012594 $a52022595 $a2032596 0 $x2052598 $a11982615 $a21992616 $a32002617 $a42012618 $a52022619 $a2032620 $i2042621 $x2052622)
             ($main_sum120 $a11982567 $a21992568 $a32002569 $a42012570 $a52022571 $a2032572 0 $x2052574 $a11982591 $a21992592 $a32002593 $a42012594 $a52022595 $a2032596 $i2042597 $x2052598)
             ($main_sum119 $a1198 $a2199 $a3200 $a4201 $a5202 0 $i204 $x205 $a11982567 $a21992568 $a32002569 $a42012570 $a52022571 $a2032572 $i2042573 $x2052574))
        ($main_inv122 $a11982615 $a21992616 $a32002617 $a42012618 $a52022619 $a2032620 0 $x2052622))))

; loop term $main_sum122
(assert
  (forall (($a42012626 (Array Int Int)) ($i2042629 Int) ($x2052630 Int) ($a52022627 (Array Int Int)) ($a32002625 (Array Int Int)) ($a2032628 Int) ($a11982623 (Array Int Int)) ($a21992624 (Array Int Int)))
    (=> (and (not (< $i2042629 100000)))
        ($main_sum122 $a11982623 $a21992624 $a32002625 $a42012626 $a52022627 $a2032628 $i2042629 $x2052630 $a11982623 $a21992624 $a32002625 $a42012626 $a52022627 $a2032628 $i2042629 $x2052630))))

; forwards $main_inv122
(assert
  (forall (($a42012626 (Array Int Int)) ($i2042629 Int) ($x2052630 Int) ($a52022627 (Array Int Int)) ($a32002625 (Array Int Int)) ($a2032628 Int) ($a11982623 (Array Int Int)) ($a21992624 (Array Int Int)))
    (=> (and (< $i2042629 100000)
             ($main_inv122 $a11982623 $a21992624 $a32002625 $a42012626 $a52022627 $a2032628 $i2042629 $x2052630))
        ($main_inv122 $a11982623 $a21992624 $a32002625 $a42012626 (store $a52022627 $i2042629 (select $a32002625 $i2042629)) $a2032628 (+ $i2042629 1) $x2052630))))

; backwards $main_sum122
(assert
  (forall (($a21992632 (Array Int Int)) ($a11982631 (Array Int Int)) ($a2032636 Int) ($a32002633 (Array Int Int)) ($a42012626 (Array Int Int)) ($i2042629 Int) ($x2052630 Int) ($a52022627 (Array Int Int)) ($a32002625 (Array Int Int)) ($a2032628 Int) ($a52022635 (Array Int Int)) ($a11982623 (Array Int Int)) ($a42012634 (Array Int Int)) ($x2052638 Int) ($a21992624 (Array Int Int)) ($i2042637 Int))
    (=> (and ($main_sum122 $a11982623 $a21992624 $a32002625 $a42012626 (store $a52022627 $i2042629 (select $a32002625 $i2042629)) $a2032628 (+ $i2042629 1) $x2052630 $a11982631 $a21992632 $a32002633 $a42012634 $a52022635 $a2032636 $i2042637 $x2052638)
             (< $i2042629 100000))
        ($main_sum122 $a11982623 $a21992624 $a32002625 $a42012626 $a52022627 $a2032628 $i2042629 $x2052630 $a11982631 $a21992632 $a32002633 $a42012634 $a52022635 $a2032636 $i2042637 $x2052638))))

; loop entry $main_inv123
(assert
  (forall (($a52022643 (Array Int Int)) ($a2032572 Int) ($a1198 (Array Int Int)) ($a2032596 Int) ($a11982639 (Array Int Int)) ($a42012594 (Array Int Int)) ($a11982615 (Array Int Int)) ($a42012570 (Array Int Int)) ($x2052574 Int) ($a32002593 (Array Int Int)) ($x2052646 Int) ($a11982567 (Array Int Int)) ($a42012642 (Array Int Int)) ($a3200 (Array Int Int)) ($a52022619 (Array Int Int)) ($x205 Int) ($a5202 (Array Int Int)) ($a4201 (Array Int Int)) ($i2042597 Int) ($a2199 (Array Int Int)) ($a42012618 (Array Int Int)) ($a11982591 (Array Int Int)) ($i2042645 Int) ($a52022571 (Array Int Int)) ($a21992592 (Array Int Int)) ($i2042573 Int) ($a21992568 (Array Int Int)) ($a32002569 (Array Int Int)) ($i2042621 Int) ($x2052622 Int) ($a21992640 (Array Int Int)) ($i204 Int) ($a21992616 (Array Int Int)) ($x2052598 Int) ($a2032620 Int) ($a32002641 (Array Int Int)) ($a2032644 Int) ($a52022595 (Array Int Int)) ($a32002617 (Array Int Int)))
    (=> (and ($main_sum122 $a11982615 $a21992616 $a32002617 $a42012618 $a52022619 $a2032620 0 $x2052622 $a11982639 $a21992640 $a32002641 $a42012642 $a52022643 $a2032644 $i2042645 $x2052646)
             ($main_sum121 $a11982591 $a21992592 $a32002593 $a42012594 $a52022595 $a2032596 0 $x2052598 $a11982615 $a21992616 $a32002617 $a42012618 $a52022619 $a2032620 $i2042621 $x2052622)
             ($main_sum120 $a11982567 $a21992568 $a32002569 $a42012570 $a52022571 $a2032572 0 $x2052574 $a11982591 $a21992592 $a32002593 $a42012594 $a52022595 $a2032596 $i2042597 $x2052598)
             ($main_sum119 $a1198 $a2199 $a3200 $a4201 $a5202 0 $i204 $x205 $a11982567 $a21992568 $a32002569 $a42012570 $a52022571 $a2032572 $i2042573 $x2052574))
        ($main_inv123 $a11982639 $a21992640 $a32002641 $a42012642 $a52022643 $a2032644 0 $x2052646))))

; loop term $main_sum123
(assert
  (forall (($a52022651 (Array Int Int)) ($a32002649 (Array Int Int)) ($x2052654 Int) ($a42012650 (Array Int Int)) ($a2032652 Int) ($a21992648 (Array Int Int)) ($a11982647 (Array Int Int)) ($i2042653 Int))
    (=> (and (not (< $i2042653 100000)))
        ($main_sum123 $a11982647 $a21992648 $a32002649 $a42012650 $a52022651 $a2032652 $i2042653 $x2052654 $a11982647 $a21992648 $a32002649 $a42012650 $a52022651 $a2032652 $i2042653 $x2052654))))

; forwards $main_inv123
(assert
  (forall (($a52022651 (Array Int Int)) ($a32002649 (Array Int Int)) ($x2052654 Int) ($a42012650 (Array Int Int)) ($a2032652 Int) ($a21992648 (Array Int Int)) ($a11982647 (Array Int Int)) ($i2042653 Int))
    (=> (and (< $i2042653 100000)
             ($main_inv123 $a11982647 $a21992648 $a32002649 $a42012650 $a52022651 $a2032652 $i2042653 $x2052654))
        ($main_inv123 $a11982647 $a21992648 $a32002649 $a42012650 (store $a52022651 $i2042653 (select $a42012650 $i2042653)) $a2032652 (+ $i2042653 1) $x2052654))))

; backwards $main_sum123
(assert
  (forall (($a32002657 (Array Int Int)) ($a42012658 (Array Int Int)) ($a11982655 (Array Int Int)) ($a32002649 (Array Int Int)) ($i2042661 Int) ($x2052654 Int) ($a21992656 (Array Int Int)) ($a42012650 (Array Int Int)) ($a52022659 (Array Int Int)) ($a2032652 Int) ($a52022651 (Array Int Int)) ($a2032660 Int) ($a11982647 (Array Int Int)) ($i2042653 Int) ($x2052662 Int) ($a21992648 (Array Int Int)))
    (=> (and ($main_sum123 $a11982647 $a21992648 $a32002649 $a42012650 (store $a52022651 $i2042653 (select $a42012650 $i2042653)) $a2032652 (+ $i2042653 1) $x2052654 $a11982655 $a21992656 $a32002657 $a42012658 $a52022659 $a2032660 $i2042661 $x2052662)
             (< $i2042653 100000))
        ($main_sum123 $a11982647 $a21992648 $a32002649 $a42012650 $a52022651 $a2032652 $i2042653 $x2052654 $a11982655 $a21992656 $a32002657 $a42012658 $a52022659 $a2032660 $i2042661 $x2052662))))

; loop entry $main_inv124
(assert
  (forall (($a52022643 (Array Int Int)) ($x2052670 Int) ($a11982663 (Array Int Int)) ($a1198 (Array Int Int)) ($a2032596 Int) ($a11982639 (Array Int Int)) ($a42012594 (Array Int Int)) ($a42012570 (Array Int Int)) ($x2052574 Int) ($a32002593 (Array Int Int)) ($x2052646 Int) ($a11982567 (Array Int Int)) ($a42012642 (Array Int Int)) ($a3200 (Array Int Int)) ($a2032668 Int) ($a2032572 Int) ($a52022619 (Array Int Int)) ($a42012666 (Array Int Int)) ($x205 Int) ($a5202 (Array Int Int)) ($a4201 (Array Int Int)) ($i2042597 Int) ($a2199 (Array Int Int)) ($a42012618 (Array Int Int)) ($a11982591 (Array Int Int)) ($i2042645 Int) ($a52022571 (Array Int Int)) ($a21992592 (Array Int Int)) ($i2042573 Int) ($i2042669 Int) ($a21992568 (Array Int Int)) ($a32002569 (Array Int Int)) ($i2042621 Int) ($x2052622 Int) ($a21992640 (Array Int Int)) ($i204 Int) ($a52022667 (Array Int Int)) ($a21992616 (Array Int Int)) ($x2052598 Int) ($a2032620 Int) ($a32002641 (Array Int Int)) ($a2032644 Int) ($a11982615 (Array Int Int)) ($a21992664 (Array Int Int)) ($a32002665 (Array Int Int)) ($a52022595 (Array Int Int)) ($a32002617 (Array Int Int)))
    (=> (and ($main_sum123 $a11982639 $a21992640 $a32002641 $a42012642 $a52022643 $a2032644 0 $x2052646 $a11982663 $a21992664 $a32002665 $a42012666 $a52022667 $a2032668 $i2042669 $x2052670)
             ($main_sum122 $a11982615 $a21992616 $a32002617 $a42012618 $a52022619 $a2032620 0 $x2052622 $a11982639 $a21992640 $a32002641 $a42012642 $a52022643 $a2032644 $i2042645 $x2052646)
             ($main_sum121 $a11982591 $a21992592 $a32002593 $a42012594 $a52022595 $a2032596 0 $x2052598 $a11982615 $a21992616 $a32002617 $a42012618 $a52022619 $a2032620 $i2042621 $x2052622)
             ($main_sum120 $a11982567 $a21992568 $a32002569 $a42012570 $a52022571 $a2032572 0 $x2052574 $a11982591 $a21992592 $a32002593 $a42012594 $a52022595 $a2032596 $i2042597 $x2052598)
             ($main_sum119 $a1198 $a2199 $a3200 $a4201 $a5202 0 $i204 $x205 $a11982567 $a21992568 $a32002569 $a42012570 $a52022571 $a2032572 $i2042573 $x2052574))
        ($main_inv124 $a11982663 $a21992664 $a32002665 $a42012666 $a52022667 $a2032668 $i2042669 0))))

; loop term $main_sum124
(assert
  (forall (($a21992672 (Array Int Int)) ($a32002673 (Array Int Int)) ($a52022675 (Array Int Int)) ($x2052678 Int) ($a2032676 Int) ($a42012674 (Array Int Int)) ($a11982671 (Array Int Int)) ($i2042677 Int))
    (=> (and (not (< $x2052678 100000)))
        ($main_sum124 $a11982671 $a21992672 $a32002673 $a42012674 $a52022675 $a2032676 $i2042677 $x2052678 $a11982671 $a21992672 $a32002673 $a42012674 $a52022675 $a2032676 $i2042677 $x2052678))))

; __VERIFIER_assert precondition
(assert
  (forall (($a21992672 (Array Int Int)) ($a32002673 (Array Int Int)) ($a52022675 (Array Int Int)) ($x2052678 Int) ($a2032676 Int) ($a42012674 (Array Int Int)) ($a11982671 (Array Int Int)) ($i2042677 Int))
    (=> (and (< $x2052678 100000)
             ($main_inv124 $a11982671 $a21992672 $a32002673 $a42012674 $a52022675 $a2032676 $i2042677 $x2052678))
        ($__VERIFIER_assert_pre (ite (= (select $a11982671 $x2052678) (select $a52022675 $x2052678)) 1 0)))))

; forwards $main_inv124
(assert
  (forall (($a21992672 (Array Int Int)) ($a32002673 (Array Int Int)) ($a52022675 (Array Int Int)) ($x2052678 Int) ($a2032676 Int) ($a42012674 (Array Int Int)) ($a11982671 (Array Int Int)) ($i2042677 Int))
    (=> (and (__VERIFIER_assert (ite (= (select $a11982671 $x2052678) (select $a52022675 $x2052678)) 1 0))
             (< $x2052678 100000)
             ($main_inv124 $a11982671 $a21992672 $a32002673 $a42012674 $a52022675 $a2032676 $i2042677 $x2052678))
        ($main_inv124 $a11982671 $a21992672 $a32002673 $a42012674 $a52022675 $a2032676 $i2042677 (+ $x2052678 1)))))

; backwards $main_sum124
(assert
  (forall (($a32002681 (Array Int Int)) ($a42012682 (Array Int Int)) ($a21992672 (Array Int Int)) ($i2042685 Int) ($a32002673 (Array Int Int)) ($a11982679 (Array Int Int)) ($a52022675 (Array Int Int)) ($a21992680 (Array Int Int)) ($x2052686 Int) ($x2052678 Int) ($a52022683 (Array Int Int)) ($a2032676 Int) ($a42012674 (Array Int Int)) ($a2032684 Int) ($a11982671 (Array Int Int)) ($i2042677 Int))
    (=> (and ($main_sum124 $a11982671 $a21992672 $a32002673 $a42012674 $a52022675 $a2032676 $i2042677 (+ $x2052678 1) $a11982679 $a21992680 $a32002681 $a42012682 $a52022683 $a2032684 $i2042685 $x2052686)
             (__VERIFIER_assert (ite (= (select $a11982671 $x2052678) (select $a52022675 $x2052678)) 1 0))
             (< $x2052678 100000))
        ($main_sum124 $a11982671 $a21992672 $a32002673 $a42012674 $a52022675 $a2032676 $i2042677 $x2052678 $a11982679 $a21992680 $a32002681 $a42012682 $a52022683 $a2032684 $i2042685 $x2052686))))

(check-sat)
